%%% static parameters %%%
timespan = 1;
Fact = [2];
Distr1 = [5];
Distr2 = [10];
Clients_N = [120];
Demand_W = [15];
Lt0 = [4];
Lt1 = [4];
SS_ = [0.85];
DS_D = [5];
K = [200];
MA = [500];
%%% dynamic parameters %%%
lost_ratio_sales_ret_th = 0.23378291960334507;
lost_ratio_sales_ret_w = 12;
lost_ratio_sales_dis_th = 0.4010626810896243;
lost_ratio_sales_dis_w = 53;
lost_ratio_sales_fac_th = 0.33187722654473506;
lost_ratio_sales_fac_w = 40;
stock_customer_MA_mean_relative_th = 0.5691541352696341;
stock_customer_MA_mean_relative_w = 47;
stock_distributor_MA_mean_relative_th = 0.8995215499130127;
stock_distributor_MA_mean_relative_w = 22;
stock_retailer_MA_mean_relative_th = 0.8058397987332223;
stock_retailer_MA_mean_relative_w = 85;
stock_factory_MA_mean_relative_th = 0.45284081025543843;
stock_factory_MA_mean_relative_w = 57;
